RAW/CMTY/fspd/CMT14Y.vrp_seed-8.out
821.7458258	0.351	29.059
