RAW/CMTY/fspd/CMT14Y.vrp_seed-8.sol
Route #1: 67 65 62 74 72 61 64 68 66 69
Route #2: 90 87 86 83 82 84 85 88 89 91
Route #3: 5 3 7 8 11 9 6 4 1 75
Route #4: 21 22 26 28 30 29 27 25 24 20
Route #5: 57 55 54 53 56 58 60 59 40 41
Route #6: 81 78 76 71 70 73 77 79 80 63
Route #7: 47 49 50 51 48 46 45 44 42 43
Route #8: 2 99 100 97 93 92 94 95 96 98
Route #9: 23 13 17 18 19 15 16 14 12 10
Route #10: 52 31 35 37 38 39 36 34 33 32
Cost 821.745826